begin

protocol verticalcylinder.ref

title Standard board - Queen wrapping comparison (no solution)
author Test
origin Test

fors 7k/8/5PP1/2P5/8/8/5Q2/6K1
stip h#1

next

author Anatoli G. Jepifanow
origin 14639 Ideal-Mate Review 01-03/2005 

fors K7/1S6/2S5/3k4/8/8/8/8
stip h#3
cond VerticalCylinder

next

title Vertical Cylinder - Queen diagonal wrapping
author Test
origin Test

fors 7k/8/5PP1/2P5/8/8/5Q2/6K1
stip h#1
cond VerticalCylinder

next

author Jaroslav Stun
origin  11581 Die Schwalbe 196 08/2002

stip h#3
cond VerticalCylinder

Pieces
  white  ROg3 gc2 Ke4
  black  ge5f1 Ke6

end
